p edge 20 32
v 1 3
v 2 3
v 3 3
v 4 3
v 5 3
v 6 1
v 7 2
v 8 1
v 9 3
v 10 2
v 11 2
v 12 2
v 13 2
v 14 1
v 15 3
v 16 1
v 17 1
v 18 1
v 19 2
v 20 1
e 1 10
e 1 12
e 1 13
e 1 15
e 2 11
e 2 12
e 2 16
e 2 17
e 2 18
e 2 20
e 3 6
e 3 14
e 3 17
e 3 18
e 4 14
e 5 16
e 5 19
e 6 8
e 6 9
e 6 18
e 7 14
e 8 9
e 8 11
e 8 18
e 8 20
e 11 20
e 12 16
e 12 17
e 13 15
e 14 17
e 16 19
e 17 18
